     Program PWSCF v.5.1 starts on 18Jun2018 at 11:39:37

     Current dimensions of program PWSCF are:
     Max number of different atomic species (ntypx) = 10
     Max number of k-points (npk) =  40000
     Max angular momentum in pseudopotentials (lmaxx) =  3
               file C.pbe-n-kjpaw_psl.1.0.0.UPF: wavefunction(s)  2S 2P renormalized
               file O.pbe-n-kjpaw_psl.0.1.U: wavefunction(s)  2P renormalized

     Subspace diagonalization in iterative solution of the eigenvalue problem:
     a serial algorithm will be used

     bravais-lattice index     =            4
     lattice parameter (alat)  =       5.4490  a.u.
     unit-cell volume          =    1040.6255 (a.u.)^3
     number of atoms/cell      =            6
     number of atomic types    =            3
     number of electrons       =        86.00
     number of Kohn-Sham states=           52
     kinetic-energy cutoff     =      40.0000  Ry
     charge density cutoff     =     320.0000  Ry
     convergence threshold     =      1.0E-06
     mixing beta               =       0.7000
     number of iterations used =            8  plain     mixing
     Exchange-correlation      =  SLA  PW   PBX  PBC ( 1  4  3  4 0)
     nstep                     =           50

     celldm(1)=   5.449000  celldm(2)=   0.000000  celldm(3)=   7.427000
     celldm(4)=   0.000000  celldm(5)=   0.000000  celldm(6)=   0.000000

     crystal axes: (cart. coord. in units of alat)
               a(1) = (   1.000000   0.000000   0.000000 )
               a(2) = (  -0.500000   0.866025   0.000000 )
               a(3) = (   0.000000   0.000000   7.427000 )

     reciprocal axes: (cart. coord. in units 2 pi/alat)
               b(1) = (  1.000000  0.577350 -0.000000 )
               b(2) = (  0.000000  1.154701  0.000000 )
               b(3) = (  0.000000 -0.000000  0.134644 )

     PseudoPot. # 1 for Au read from file:
     /home/oropebuen/Documents/Job/Absortion/SSSP_efficiency_pseudos/Au_ONCV_PBE-1.0.upf
     MD5 check sum: 1009843a674e36925f098327e430af60
     Pseudo is Norm-conserving, Zval = 19.0
     Generated using ONCVPSP code by D. R. Hamann
     Using radial grid of  602 points,  8 beta functions with:
                l(1) =   0
                l(2) =   0
                l(3) =   1
                l(4) =   1
                l(5) =   2
                l(6) =   2
                l(7) =   3
                l(8) =   3

     PseudoPot. # 2 for  C read from file:
     /home/oropebuen/Documents/Job/Absortion/SSSP_efficiency_pseudos/C.pbe-n-kjpaw_psl.1.0.0.UPF
     MD5 check sum: 8e281b34a927efac7e739263a90d7aed
     Pseudo is Projector augmented-wave + core cor, Zval =  4.0
     Generated using "atomic" code by A. Dal Corso  v.5.1
     Shape of augmentation charge: PSQ
     Using radial grid of 1073 points,  4 beta functions with:
                l(1) =   0
                l(2) =   0
                l(3) =   1
                l(4) =   1
     Q(r) pseudized with 0 coefficients

     PseudoPot. # 3 for  O read from file:
     /home/oropebuen/Documents/Job/Absortion/SSSP_efficiency_pseudos/O.pbe-n-kjpaw_psl.0.1.U
     MD5 check sum: 3f94a2996a3169367d6eb21d9b593f20
     Pseudo is Projector augmented-wave + core cor, Zval =  6.0
     Generated using "atomic" code by A. Dal Corso  v.5.0.99 svn rev. 10869
     Shape of augmentation charge: BESSEL
     Using radial grid of 1095 points,  4 beta functions with:
                l(1) =   0
                l(2) =   0
                l(3) =   1
                l(4) =   1
     Q(r) pseudized with 0 coefficients

     atomic species   valence    mass     pseudopotential
        Au            19.00   196.96600     Au( 1.00)
        C              4.00    12.01070      C( 1.00)
        O              6.00    15.99940      O( 1.00)

      2 Sym. Ops. (no inversion) found

   Cartesian axes

     site n.     atom                  positions (alat units)
         1           Au  tau(   1) = (   0.0000000   0.0000000   0.0000000  )
         2           Au  tau(   2) = (   0.5000000   0.2886750   0.8164970  )
         3           Au  tau(   3) = (   0.0000000   0.5773500   1.6329930  )
         4           Au  tau(   4) = (   0.0000000   0.0000000   2.4494900  )
         5           C   tau(   5) = (   0.5000000   0.2886750   3.0737340  )
         6           O   tau(   6) = (   0.5000010   0.2896750   3.4648430  )

     number of k points=    52  gaussian smearing, width (Ry)=  0.0100
                       cart. coord. in units 2pi/alat
        k(    1) = (   0.0625000   0.1082532  -0.0673219), wk =   0.0416667
        k(    2) = (   0.0625000   0.2525907  -0.0673219), wk =   0.0416667
        k(    3) = (   0.0625000   0.3969283  -0.0673219), wk =   0.0416667
        k(    4) = (   0.0625000   0.5412659  -0.0673219), wk =   0.0416667
        k(    5) = (   0.0625000  -0.4690971  -0.0673219), wk =   0.0416667
        k(    6) = (   0.0625000  -0.3247595  -0.0673219), wk =   0.0416667
        k(    7) = (   0.0625000  -0.1804220  -0.0673219), wk =   0.0416667
        k(    8) = (   0.0625000  -0.0360844  -0.0673219), wk =   0.0416667
        k(    9) = (   0.1875000   0.3247595  -0.0673219), wk =   0.0416667
        k(   10) = (   0.1875000   0.4690971  -0.0673219), wk =   0.0416667
        k(   11) = (   0.1875000   0.6134347  -0.0673219), wk =   0.0416667
        k(   12) = (   0.1875000  -0.3969283  -0.0673219), wk =   0.0416667
        k(   13) = (   0.1875000  -0.2525907  -0.0673219), wk =   0.0416667
        k(   14) = (   0.1875000  -0.1082532  -0.0673219), wk =   0.0416667
        k(   15) = (   0.3125000   0.5412659  -0.0673219), wk =   0.0416667
        k(   16) = (   0.3125000   0.6856034  -0.0673219), wk =   0.0416667
        k(   17) = (   0.3125000  -0.3247595  -0.0673219), wk =   0.0416667
        k(   18) = (   0.3125000  -0.1804220  -0.0673219), wk =   0.0416667
        k(   19) = (   0.4375000   0.7577722  -0.0673219), wk =   0.0416667
        k(   20) = (   0.4375000  -0.2525907  -0.0673219), wk =   0.0416667
        k(   21) = (   0.1250000   0.0000000  -0.0673219), wk =   0.0208333
        k(   22) = (  -0.1875000   0.1804220  -0.0673219), wk =   0.0416667
        k(   23) = (   0.2500000   0.0721688  -0.0673219), wk =   0.0416667
        k(   24) = (  -0.3125000   0.2525907  -0.0673219), wk =   0.0416667
        k(   25) = (   0.3750000   0.1443376  -0.0673219), wk =   0.0416667
        k(   26) = (  -0.4375000   0.3247595  -0.0673219), wk =   0.0416667
        k(   27) = (   0.5000000   0.2165064  -0.0673219), wk =   0.0416667
        k(   28) = (   0.4375000  -0.1804220  -0.0673219), wk =   0.0416667
        k(   29) = (  -0.3750000  -0.2886751  -0.0673219), wk =   0.0416667
        k(   30) = (   0.3125000  -0.1082532  -0.0673219), wk =   0.0416667
        k(   31) = (  -0.2500000  -0.2165064  -0.0673219), wk =   0.0416667
        k(   32) = (   0.1875000  -0.0360844  -0.0673219), wk =   0.0416667
        k(   33) = (  -0.1250000  -0.1443376  -0.0673219), wk =   0.0416667
        k(   34) = (   0.0000000  -0.0721688  -0.0673219), wk =   0.0208333
        k(   35) = (   0.3750000   0.0000000  -0.0673219), wk =   0.0208333
        k(   36) = (  -0.3125000   0.3969283  -0.0673219), wk =   0.0416667
        k(   37) = (   0.5000000   0.0721688  -0.0673219), wk =   0.0416667
        k(   38) = (  -0.4375000   0.4690971  -0.0673219), wk =   0.0416667
        k(   39) = (   0.6250000   0.1443376  -0.0673219), wk =   0.0416667
        k(   40) = (   0.4375000  -0.0360844  -0.0673219), wk =   0.0416667
        k(   41) = (  -0.2500000  -0.3608439  -0.0673219), wk =   0.0416667
        k(   42) = (   0.3125000   0.0360844  -0.0673219), wk =   0.0416667
        k(   43) = (  -0.1250000  -0.2886751  -0.0673219), wk =   0.0416667
        k(   44) = (   0.0000000  -0.2165064  -0.0673219), wk =   0.0208333
        k(   45) = (   0.6250000   0.0000000  -0.0673219), wk =   0.0208333
        k(   46) = (  -0.4375000   0.6134347  -0.0673219), wk =   0.0416667
        k(   47) = (   0.7500000   0.0721688  -0.0673219), wk =   0.0416667
        k(   48) = (   0.4375000   0.1082532  -0.0673219), wk =   0.0416667
        k(   49) = (  -0.1250000  -0.4330127  -0.0673219), wk =   0.0416667
        k(   50) = (   0.0000000  -0.3608439  -0.0673219), wk =   0.0208333
        k(   51) = (   0.8750000   0.0000000  -0.0673219), wk =   0.0208333
        k(   52) = (   0.0000000  -0.5051815  -0.0673219), wk =   0.0208333

     Largest allocated arrays     est. size (Mb)     dimensions
     Largest temporary arrays     est. size (Mb)     dimensions

     Check: negative/imaginary core charge=   -0.000003    0.000000

     Initial potential from superposition of free atoms
     Check: negative starting charge=   -0.000180

     starting charge   85.91012, renormalised to   86.00000

     negative rho (up, down):  1.798E-04 0.000E+00
     Starting wfc are    8 randomized atomic wfcs +   44 random wfc
     Checking if some PAW data can be deallocated...

     Self-consistent Calculation

     iteration #  1     ecut=    40.00 Ry     beta=0.70
     Davidson diagonalization with overlap
     ethr =  1.00E-02,  avg # of iterations =  7.1

     Threshold (ethr) on eigenvalues was too large:
     Diagonalizing with lowered threshold

     Davidson diagonalization with overlap
     ethr =  5.90E-04,  avg # of iterations =  1.0

     negative rho (up, down):  1.522E-04 0.000E+00

     total energy              =   -1158.46836488 Ry
     Harris-Foulkes estimate   =   -1158.88639318 Ry
     estimated scf accuracy    <       0.50775886 Ry

[...]

     End of self-consistent calculation

          k = 0.0625 0.1083-0.0673 (  4518 PWs)   bands (ev):

   -98.7666 -98.1057 -98.0501 -97.6454 -50.1129 -50.0024 -49.9884 -49.4569
   -49.3487 -49.3302 -49.3279 -49.2913 -49.2782 -48.9080 -48.8944 -48.8664
   -17.4147  -3.7285  -1.5365  -0.9961   0.0354   0.7467   0.8363   1.3412
     1.3892   2.3300   2.5014   2.6978   2.8067   2.9663   3.0527   3.1366
     3.3066   3.4148   3.6132   3.7557   3.9351   4.0258   4.4866   4.5894
     4.8704   5.1892   5.5230   5.8397   7.8646  10.7988  11.6171  11.7166
    12.7693  13.1588  14.7123  15.2748

[...]

          k =-0.1875 0.1804-0.0673 (  4466 PWs)   bands (ev):

[...]

     the Fermi energy is     7.5988 ev

!    total energy              =   -1158.80743984 Ry
     Harris-Foulkes estimate   =   -1158.80744012 Ry
     estimated scf accuracy    <       0.00000035 Ry

     The total energy is the sum of the following terms:

     one-electron contribution =   -6246.15607433 Ry
     hartree contribution      =    3128.13250435 Ry
     xc contribution           =    -113.43171003 Ry
     ewald contribution        =    2088.36053090 Ry
     one-center paw contrib.   =     -15.71130924 Ry
     smearing contrib. (-TS)   =      -0.00138149 Ry

     convergence has been achieved in  13 iterations

     Forces acting on atoms (Ry/au):

     negative rho (up, down):  1.462E-04 0.000E+00
     atom    1 type  1   force =     0.00000000    0.00000081   -0.01982287
     atom    2 type  1   force =     0.00000000    0.00000083    0.00312697
     atom    3 type  1   force =     0.00000000    0.00000387   -0.00300428
     atom    4 type  1   force =     0.00000000    0.00003448    0.01754441
     atom    5 type  2   force =     0.00000000   -0.00016729   -0.13586010
     atom    6 type  3   force =     0.00000000    0.00012732    0.13801586

     Total force =     0.195515     Total SCF correction =     0.004963

     BFGS Geometry Optimization

     number of scf cycles    =   1
     number of bfgs steps    =   0

     energy   new            =   -1158.8074398393 Ry

     new trust radius        =       0.1380159235 bohr
     new conv_thr            =       0.0000010000 Ry

ATOMIC_POSITIONS (alat)
Au      -0.000000000   0.000000149  -0.003637891
Au       0.500000000   0.288675152   0.817070861
Au       0.000000000   0.577350710   1.632441655
Au      -0.000000000   0.000006327   2.452709749
C        0.500000000   0.288644298   3.048800966
O        0.500001000   0.289698365   3.490171659

     Writing output data file CO_Au_hollow.save
     Check: negative starting charge=   -0.000180
     NEW-OLD atomic charge density approx. for the potential

     Check: negative/imaginary core charge=   -0.000003    0.000000
     Check: negative starting charge=   -0.000178

[...]

     energy   old            =   -1158.8074398393 Ry
     energy   new            =   -1158.7768451822 Ry

     CASE: energy  _new > energy  _old

[...]

     CASE: energy  _new < energy  _old

[...]

     Total force =     0.028915     Total SCF correction =     0.005813
     SCF correction compared to forces is large: reduce conv_thr to get better values

[...]

     Total force =     0.006759     Total SCF correction =     0.000297

[...]

     number of scf cycles    =  15
     number of bfgs steps    =  13

     energy   old            =   -1158.8218229854 Ry
     energy   new            =   -1158.8218278213 Ry

     CASE: energy  _new < energy  _old

     new trust radius        =       0.0008560106 bohr
     new conv_thr            =       0.0000000100 Ry

ATOMIC_POSITIONS (alat)
Au      -0.000000000  -0.000002463  -0.073632800
Au       0.500000000   0.288671487   0.798010351
Au       0.000000000   0.577318166   1.666997375
Au       0.000000000   0.000016225   2.529135071
C        0.500000000   0.289381575   3.055717763
O        0.500001000   0.288990010   3.461329239

     Writing output data file CO_Au_hollow.save
     Check: negative starting charge=   -0.000174
     NEW-OLD atomic charge density approx. for the potential

     Check: negative/imaginary core charge=   -0.000003    0.000000
     Check: negative starting charge=   -0.000174

[...]

     Self-consistent Calculation

[...]

     Threshold (ethr) on eigenvalues was too large:
     Diagonalizing with lowered threshold

     Davidson diagonalization with overlap
     ethr =  2.29E-09,  avg # of iterations =  3.0

[...]

     total energy              =   -1158.82182908 Ry
     Harris-Foulkes estimate   =   -1158.82182910 Ry
     estimated scf accuracy    <       0.00000004 Ry

     iteration #  7     ecut=    40.00 Ry     beta=0.70
     Davidson diagonalization with overlap
     ethr =  4.43E-11,  avg # of iterations =  2.0

     negative rho (up, down):  1.360E-04 0.000E+00

     End of self-consistent calculation

[...]

          k =-0.1250-0.4330-0.0673 (  4428 PWs)   bands (ev):

[...]

          k = 0.0000-0.5052-0.0673 (  4396 PWs)   bands (ev):

   -99.5021 -98.3545 -98.1867 -97.7542 -50.8876 -50.8524 -50.7640 -49.7408
   -49.6340 -49.6202 -49.5774 -49.4622 -49.4358 -49.1690 -49.0500 -48.9425
   -16.0064  -3.1970  -1.4400  -0.2768   0.4435   0.8205   1.0122   1.0450
     1.2747   1.5109   2.0344   2.5438   2.9190   2.9420   3.0998   3.6326
     4.1936   4.2785   4.4233   4.5794   5.1448   5.3105   5.4007   5.5655
     5.9590   6.3648   6.8974   7.5423   9.2346  10.7033  10.7291  11.5709
    11.9465  13.1270  14.5745  15.3023

     the Fermi energy is     7.2650 ev

!    total energy              =   -1158.82182909 Ry
     Harris-Foulkes estimate   =   -1158.82182909 Ry
     estimated scf accuracy    <          3.6E-09 Ry

     The total energy is the sum of the following terms:

     one-electron contribution =   -5790.98597551 Ry
     hartree contribution      =    2899.84117966 Ry
     xc contribution           =    -113.31836912 Ry
     ewald contribution        =    1861.34748769 Ry
     one-center paw contrib.   =     -15.70537523 Ry
     smearing contrib. (-TS)   =      -0.00077657 Ry

     convergence has been achieved in   7 iterations

     Forces acting on atoms (Ry/au):

     negative rho (up, down):  1.360E-04 0.000E+00
     atom    1 type  1   force =     0.00000000   -0.00000126   -0.00042834
     atom    2 type  1   force =     0.00000000   -0.00000247    0.00046300
     atom    3 type  1   force =     0.00000000   -0.00001672   -0.00007577
     atom    4 type  1   force =     0.00000000   -0.00002462   -0.00026317
     atom    5 type  2   force =     0.00000000   -0.00002575    0.00003839
     atom    6 type  3   force =     0.00000000    0.00007083    0.00026588

     Total force =     0.000743     Total SCF correction =     0.000728
     SCF correction compared to forces is large: reduce conv_thr to get better values

     bfgs converged in  16 scf cycles and  14 bfgs steps
     (criteria: energy <  1.0E-04, force <  1.0E-03)

     End of BFGS Geometry Optimization

     Final energy   =   -1158.8218290875 Ry
Begin final coordinates

ATOMIC_POSITIONS (alat)
Au      -0.000000000  -0.000002463  -0.073632800
Au       0.500000000   0.288671487   0.798010351
Au       0.000000000   0.577318166   1.666997375
Au       0.000000000   0.000016225   2.529135071
C        0.500000000   0.289381575   3.055717763
O        0.500001000   0.288990010   3.461329239
End final coordinates

     Writing output data file CO_Au_hollow.save

     General routines

     Parallel routines

     PAW routines

   This run was terminated on:  14: 0:40  18Jun2018

   JOB DONE.