     Program PWSCF v.5.1 starts on 18Jun2018 at  3:42:37

     Current dimensions of program PWSCF are:
     Max number of different atomic species (ntypx) = 10
     Max number of k-points (npk) =  40000
     Max angular momentum in pseudopotentials (lmaxx) =  3

     Subspace diagonalization in iterative solution of the eigenvalue problem:
     a serial algorithm will be used

     Message from routine setup:
     no reason to have ecutrho>4*ecutwfc

     bravais-lattice index     =            4
     lattice parameter (alat)  =       5.4490  a.u.
     unit-cell volume          =    1040.6255 (a.u.)^3
     number of atoms/cell      =            4
     number of atomic types    =            1
     number of electrons       =        76.00
     number of Kohn-Sham states=           46
     kinetic-energy cutoff     =      40.0000  Ry
     charge density cutoff     =     320.0000  Ry
     convergence threshold     =      1.0E-06
     mixing beta               =       0.7000
     number of iterations used =            8  plain     mixing
     Exchange-correlation      = PBE ( 1  4  3  4 0)

     celldm(1)=   5.449000  celldm(2)=   0.000000  celldm(3)=   7.427000
     celldm(4)=   0.000000  celldm(5)=   0.000000  celldm(6)=   0.000000

     crystal axes: (cart. coord. in units of alat)
               a(1) = (   1.000000   0.000000   0.000000 )
               a(2) = (  -0.500000   0.866025   0.000000 )
               a(3) = (   0.000000   0.000000   7.427000 )

     reciprocal axes: (cart. coord. in units 2 pi/alat)
               b(1) = (  1.000000  0.577350 -0.000000 )
               b(2) = (  0.000000  1.154701  0.000000 )
               b(3) = (  0.000000 -0.000000  0.134644 )

     PseudoPot. # 1 for Au read from file:
     /home/oropebuen/Documents/Job/Absortion/SSSP_efficiency_pseudos/Au_ONCV_PBE-1.0.upf
     MD5 check sum: 1009843a674e36925f098327e430af60
     Pseudo is Norm-conserving, Zval = 19.0
     Generated using ONCVPSP code by D. R. Hamann
     Using radial grid of  602 points,  8 beta functions with:
                l(1) =   0
                l(2) =   0
                l(3) =   1
                l(4) =   1
                l(5) =   2
                l(6) =   2
                l(7) =   3
                l(8) =   3

     atomic species   valence    mass     pseudopotential
        Au            19.00   196.96600     Au( 1.00)

      6 Sym. Ops. (no inversion) found

   Cartesian axes

     site n.     atom                  positions (alat units)
         1           Au  tau(   1) = (   0.0000000  -0.0000000  -0.0716408  )
         2           Au  tau(   2) = (   0.5000000   0.2886750   0.7975088  )
         3           Au  tau(   3) = (   0.0000000   0.5773500   1.6521746  )
         4           Au  tau(   4) = (   0.0000000  -0.0000000   2.5209374  )

     number of k points=    20  gaussian smearing, width (Ry)=  0.0100
                       cart. coord. in units 2pi/alat
        k(    1) = (   0.0625000   0.1082532  -0.0673219), wk =   0.0625000
        k(    2) = (   0.0625000   0.2525907  -0.0673219), wk =   0.1250000
        k(    3) = (   0.0625000   0.3969283  -0.0673219), wk =   0.1250000
        k(    4) = (   0.0625000   0.5412659  -0.0673219), wk =   0.1250000
        k(    5) = (   0.0625000  -0.4690971  -0.0673219), wk =   0.1250000
        k(    6) = (   0.0625000  -0.3247595  -0.0673219), wk =   0.1250000
        k(    7) = (   0.0625000  -0.1804220  -0.0673219), wk =   0.1250000
        k(    8) = (   0.0625000  -0.0360844  -0.0673219), wk =   0.0625000
        k(    9) = (   0.1875000   0.3247595  -0.0673219), wk =   0.0625000
        k(   10) = (   0.1875000   0.4690971  -0.0673219), wk =   0.1250000
        k(   11) = (   0.1875000   0.6134347  -0.0673219), wk =   0.1250000
        k(   12) = (   0.1875000  -0.3969283  -0.0673219), wk =   0.1250000
        k(   13) = (   0.1875000  -0.2525907  -0.0673219), wk =   0.1250000
        k(   14) = (   0.1875000  -0.1082532  -0.0673219), wk =   0.0625000
        k(   15) = (   0.3125000   0.5412659  -0.0673219), wk =   0.0625000
        k(   16) = (   0.3125000   0.6856034  -0.0673219), wk =   0.1250000
        k(   17) = (   0.3125000  -0.3247595  -0.0673219), wk =   0.1250000
        k(   18) = (   0.3125000  -0.1804220  -0.0673219), wk =   0.0625000
        k(   19) = (   0.4375000   0.7577722  -0.0673219), wk =   0.0625000
        k(   20) = (   0.4375000  -0.2525907  -0.0673219), wk =   0.0625000

     Largest allocated arrays     est. size (Mb)     dimensions
     Largest temporary arrays     est. size (Mb)     dimensions

     Initial potential from superposition of free atoms
     Check: negative starting charge=   -0.000159

     starting charge   75.91017, renormalised to   76.00000

     negative rho (up, down):  1.594E-04 0.000E+00
     Starting wfc are random

     Self-consistent Calculation

     iteration #  1     ecut=    40.00 Ry     beta=0.70
     Davidson diagonalization with overlap
     ethr =  1.00E-02,  avg # of iterations =  7.0

     Threshold (ethr) on eigenvalues was too large:
     Diagonalizing with lowered threshold

     Davidson diagonalization with overlap
     ethr =  3.32E-05,  avg # of iterations =  2.3

     negative rho (up, down):  8.392E-06 0.000E+00

     total energy              =   -1098.85370140 Ry
     Harris-Foulkes estimate   =   -1098.86918520 Ry
     estimated scf accuracy    <       0.02550365 Ry

[...]

     negative rho (up, down):  4.433E-07 0.000E+00

[...]

     total energy              =   -1098.86393082 Ry
     Harris-Foulkes estimate   =   -1098.86393118 Ry
     estimated scf accuracy    <       0.00000111 Ry

     iteration #  9     ecut=    40.00 Ry     beta=0.70
     Davidson diagonalization with overlap
     ethr =  1.46E-09,  avg # of iterations =  2.0

     End of self-consistent calculation

          k = 0.0625 0.1083-0.0673 (  4518 PWs)   bands (ev):

   -99.4515 -99.4473 -99.0532 -99.0517 -50.7601 -50.7021 -50.6899 -50.6846
   -50.6820 -50.6748 -50.3192 -50.3178 -50.3057 -50.3042 -50.2488 -50.2471
    -2.5079  -1.4417  -0.5572  -0.4994   1.4302   1.4598   1.5897   1.8763
     1.9746   2.0346   2.0557   2.0648   2.2755   2.4219   2.4700   3.0437
     3.1058   3.3425   3.5326   3.6707   3.7906   4.0879   4.1122   5.4273
     7.0916  10.5334  11.6280  11.7770  13.6205  14.1419

[...]

          k = 0.4375-0.2526-0.0673 (  4396 PWs)   bands (ev):

   -99.4440 -99.4412 -99.0464 -99.0449 -50.8449 -50.8354 -50.7248 -50.7161
   -50.7084 -50.6874 -50.4605 -50.4591 -50.3417 -50.3402 -50.2337 -50.2321
    -0.4767  -0.3429   0.0723   0.1723   0.2780   0.9585   1.4287   1.6125
     2.1883   2.5590   2.9195   2.9701   3.6266   3.6770   4.0211   4.0721
     4.2585   4.3511   4.6679   4.6760   5.2525   5.8623   6.9870   8.7535
     9.6624  10.4511  11.4629  12.8184  13.7562  14.3165

     the Fermi energy is     6.0925 ev

!    total energy              =   -1098.86393076 Ry
     Harris-Foulkes estimate   =   -1098.86393109 Ry
     estimated scf accuracy    <       0.00000035 Ry

     The total energy is the sum of the following terms:

     one-electron contribution =   -6050.23650231 Ry
     hartree contribution      =    3021.30616268 Ry
     xc contribution           =    -101.36064139 Ry
     ewald contribution        =    2031.42746589 Ry
     smearing contrib. (-TS)   =      -0.00041563 Ry

     convergence has been achieved in   9 iterations

     Writing output data file Au.save

     General routines

     Parallel routines

   This run was terminated on:   3:47:56  18Jun2018

   JOB DONE.