     Program PWSCF v.5.1 starts on 18Jun2018 at  2:49:58

     Current dimensions of program PWSCF are:
     Max number of different atomic species (ntypx) = 10
     Max number of k-points (npk) =  40000
     Max angular momentum in pseudopotentials (lmaxx) =  3

     Subspace diagonalization in iterative solution of the eigenvalue problem:
     a serial algorithm will be used

     Message from routine setup:
     no reason to have ecutrho>4*ecutwfc

     bravais-lattice index     =            4
     lattice parameter (alat)  =       5.4490  a.u.
     unit-cell volume          =    1040.6536 (a.u.)^3
     number of atoms/cell      =            4
     number of atomic types    =            1
     number of electrons       =        76.00
     number of Kohn-Sham states=           46
     kinetic-energy cutoff     =      40.0000  Ry
     charge density cutoff     =     320.0000  Ry
     convergence threshold     =      1.0E-06
     mixing beta               =       0.7000
     number of iterations used =            8  plain     mixing
     Exchange-correlation      = PBE ( 1  4  3  4 0)
     nstep                     =           50

     celldm(1)=   5.449000  celldm(2)=   0.000000  celldm(3)=   7.427200
     celldm(4)=   0.000000  celldm(5)=   0.000000  celldm(6)=   0.000000

     crystal axes: (cart. coord. in units of alat)
               a(1) = (   1.000000   0.000000   0.000000 )
               a(2) = (  -0.500000   0.866025   0.000000 )
               a(3) = (   0.000000   0.000000   7.427200 )

     reciprocal axes: (cart. coord. in units 2 pi/alat)
               b(1) = (  1.000000  0.577350 -0.000000 )
               b(2) = (  0.000000  1.154701  0.000000 )
               b(3) = (  0.000000 -0.000000  0.134640 )

     PseudoPot. # 1 for Au read from file:
     /home/oropebuen/Documents/Job/Absortion/SSSP_efficiency_pseudos/Au_ONCV_PBE-1.0.upf
     MD5 check sum: 1009843a674e36925f098327e430af60
     Pseudo is Norm-conserving, Zval = 19.0
     Generated using ONCVPSP code by D. R. Hamann
     Using radial grid of  602 points,  8 beta functions with:
                l(1) =   0
                l(2) =   0
                l(3) =   1
                l(4) =   1
                l(5) =   2
                l(6) =   2
                l(7) =   3
                l(8) =   3

     atomic species   valence    mass     pseudopotential
        Au            19.00   196.96600     Au( 1.00)

      6 Sym. Ops. (no inversion) found
          (note:  6 additional sym.ops. were found but ignored
           their fractional translations are incommensurate with FFT grid)

   Cartesian axes

     site n.     atom                  positions (alat units)
         1           Au  tau(   1) = (   0.0000000   0.0000000   0.0000000  )
         2           Au  tau(   2) = (   0.5000000   0.2886750   0.8164970  )
         3           Au  tau(   3) = (   0.0000000   0.5773500   1.6329930  )
         4           Au  tau(   4) = (   0.0000000   0.0000000   2.4494900  )

     number of k points=    20  gaussian smearing, width (Ry)=  0.0100
                       cart. coord. in units 2pi/alat
        k(    1) = (   0.0625000   0.1082532  -0.0673201), wk =   0.0625000
        k(    2) = (   0.0625000   0.2525907  -0.0673201), wk =   0.1250000
        k(    3) = (   0.0625000   0.3969283  -0.0673201), wk =   0.1250000
        k(    4) = (   0.0625000   0.5412659  -0.0673201), wk =   0.1250000
        k(    5) = (   0.0625000  -0.4690971  -0.0673201), wk =   0.1250000
        k(    6) = (   0.0625000  -0.3247595  -0.0673201), wk =   0.1250000
        k(    7) = (   0.0625000  -0.1804220  -0.0673201), wk =   0.1250000
        k(    8) = (   0.0625000  -0.0360844  -0.0673201), wk =   0.0625000
        k(    9) = (   0.1875000   0.3247595  -0.0673201), wk =   0.0625000
        k(   10) = (   0.1875000   0.4690971  -0.0673201), wk =   0.1250000
        k(   11) = (   0.1875000   0.6134347  -0.0673201), wk =   0.1250000
        k(   12) = (   0.1875000  -0.3969283  -0.0673201), wk =   0.1250000
        k(   13) = (   0.1875000  -0.2525907  -0.0673201), wk =   0.1250000
        k(   14) = (   0.1875000  -0.1082532  -0.0673201), wk =   0.0625000
        k(   15) = (   0.3125000   0.5412659  -0.0673201), wk =   0.0625000
        k(   16) = (   0.3125000   0.6856034  -0.0673201), wk =   0.1250000
        k(   17) = (   0.3125000  -0.3247595  -0.0673201), wk =   0.1250000
        k(   18) = (   0.3125000  -0.1804220  -0.0673201), wk =   0.0625000
        k(   19) = (   0.4375000   0.7577722  -0.0673201), wk =   0.0625000
        k(   20) = (   0.4375000  -0.2525907  -0.0673201), wk =   0.0625000

     Largest allocated arrays     est. size (Mb)     dimensions
     Largest temporary arrays     est. size (Mb)     dimensions

     Initial potential from superposition of free atoms
     Check: negative starting charge=   -0.000157

     starting charge   75.91017, renormalised to   76.00000

     negative rho (up, down):  1.571E-04 0.000E+00
     Starting wfc are random

     Self-consistent Calculation

     iteration #  1     ecut=    40.00 Ry     beta=0.70
     Davidson diagonalization with overlap
     ethr =  1.00E-02,  avg # of iterations =  7.0

     Threshold (ethr) on eigenvalues was too large:
     Diagonalizing with lowered threshold

     Davidson diagonalization with overlap
     ethr =  2.74E-05,  avg # of iterations =  2.9

     negative rho (up, down):  8.338E-06 0.000E+00

     total energy              =   -1098.85022176 Ry
     Harris-Foulkes estimate   =   -1098.86235621 Ry
     estimated scf accuracy    <       0.02129385 Ry

[...]

     End of self-consistent calculation

          k = 0.0625 0.1083-0.0673 (  4518 PWs)   bands (ev):

   -99.4727 -99.4665 -99.1005 -99.1002 -50.8422 -50.7428 -50.7131 -50.7069
   -50.6995 -50.6872 -50.3602 -50.3598 -50.3467 -50.3463 -50.3238 -50.3225
    -2.8516  -1.6734  -0.6374  -0.6359   1.3221   1.4129   1.4816   1.8438
     1.8697   1.8825   1.9267   2.0107   2.2379   2.3199   2.3758   2.9648
     3.0593   3.2458   3.4810   3.6553   3.7828   4.1827   4.2365   5.6414
     7.2853  10.9095  11.6672  12.0044  13.7750  14.2641

[...]

     the Fermi energy is     6.1735 ev

!    total energy              =   -1098.85801197 Ry
     Harris-Foulkes estimate   =   -1098.85801217 Ry
     estimated scf accuracy    <       0.00000022 Ry

     The total energy is the sum of the following terms:

     one-electron contribution =   -6540.52083329 Ry
     hartree contribution      =    3266.34221095 Ry
     xc contribution           =    -101.47846851 Ry
     ewald contribution        =    2276.80016239 Ry
     smearing contrib. (-TS)   =      -0.00108351 Ry

     convergence has been achieved in   9 iterations

     Forces acting on atoms (Ry/au):

     atom    1 type  1   force =     0.00000000   -0.00000000   -0.01818680
     atom    2 type  1   force =     0.00000000    0.00000000    0.00430472
     atom    3 type  1   force =     0.00000000   -0.00000000   -0.00434480
     atom    4 type  1   force =     0.00000000   -0.00000000    0.01822688

     Total force =     0.026465     Total SCF correction =     0.004682
     SCF correction compared to forces is large: reduce conv_thr to get better values

     BFGS Geometry Optimization

     number of scf cycles    =   1
     number of bfgs steps    =   0

     energy   new            =   -1098.8580119702 Ry

     new trust radius        =       0.0182268808 bohr
     new conv_thr            =       0.0000010000 Ry

ATOMIC_POSITIONS (alat)
Au       0.000000000  -0.000000000  -0.003337640
Au       0.500000000   0.288675000   0.817287002
Au       0.000000000   0.577350000   1.632195642
Au       0.000000000  -0.000000000   2.452834996

     Writing output data file Au.save
     Check: negative starting charge=   -0.000157
     NEW-OLD atomic charge density approx. for the potential
     Check: negative starting charge=   -0.000159

[...]

     Total force =     0.023127     Total SCF correction =     0.001131

[...]

     energy   old            =   -1098.8580119702 Ry
     energy   new            =   -1098.8586638292 Ry

     CASE: energy  _new < energy  _old

     WARNING: bfgs curvature condition failed, Theta= 0.925
     new trust radius        =       0.0273403212 bohr
     new conv_thr            =       0.0000000652 Ry

[...]

     Total force =     0.006410     Total SCF correction =     0.000268

     number of scf cycles    =   9
     number of bfgs steps    =   8

     energy   old            =   -1098.8636040749 Ry
     energy   new            =   -1098.8638344984 Ry

     CASE: energy  _new < energy  _old

     new trust radius        =       0.0163797702 bohr
     new conv_thr            =       0.0000000230 Ry

ATOMIC_POSITIONS (alat)
Au       0.000000000  -0.000000000  -0.071640824
Au       0.500000000   0.288675000   0.797508797
Au       0.000000000   0.577350000   1.652174586
Au       0.000000000  -0.000000000   2.520937441

     Writing output data file Au.save
     Check: negative starting charge=   -0.000158
     NEW-OLD atomic charge density approx. for the potential
     Check: negative starting charge=   -0.000159

     negative rho (up, down):  1.066E-06 0.000E+00

     Self-consistent Calculation

[...]

     Threshold (ethr) on eigenvalues was too large:
     Diagonalizing with lowered threshold

     Davidson diagonalization with overlap
     ethr =  4.13E-08,  avg # of iterations =  1.0

[...]

     total energy              =   -1098.86393118 Ry
     Harris-Foulkes estimate   =   -1098.86393134 Ry
     estimated scf accuracy    <       0.00000033 Ry

     iteration #  7     ecut=    40.00 Ry     beta=0.70
     Davidson diagonalization with overlap
     ethr =  4.29E-10,  avg # of iterations =  2.0

     End of self-consistent calculation

[...]

          k = 0.4375-0.2526-0.0673 (  4396 PWs)   bands (ev):

   -99.4435 -99.4421 -99.0470 -99.0457 -50.8449 -50.8356 -50.7249 -50.7164
   -50.7086 -50.6877 -50.4611 -50.4599 -50.3423 -50.3411 -50.2344 -50.2329
    -0.4768  -0.3430   0.0721   0.1718   0.2775   0.9581   1.4284   1.6120
     2.1881   2.5586   2.9191   2.9698   3.6261   3.6766   4.0207   4.0717
     4.2585   4.3510   4.6672   4.6753   5.2522   5.8619   6.9866   8.7532
     9.6622  10.4508  11.4625  12.8181  13.7559  14.3163

     the Fermi energy is     6.0922 ev

!    total energy              =   -1098.86393122 Ry
     Harris-Foulkes estimate   =   -1098.86393125 Ry
     estimated scf accuracy    <       0.00000002 Ry

     The total energy is the sum of the following terms:

     one-electron contribution =   -6050.63603526 Ry
     hartree contribution      =    3021.50145811 Ry
     xc contribution           =    -101.36081157 Ry
     ewald contribution        =    2031.63187275 Ry
     smearing contrib. (-TS)   =      -0.00041525 Ry

     convergence has been achieved in   7 iterations

     Forces acting on atoms (Ry/au):

     atom    1 type  1   force =     0.00000000    0.00000000    0.00077152
     atom    2 type  1   force =     0.00000000    0.00000000   -0.00087597
     atom    3 type  1   force =     0.00000000   -0.00000000    0.00078137
     atom    4 type  1   force =     0.00000000   -0.00000000   -0.00067692

     Total force =     0.001559     Total SCF correction =     0.001652
     SCF correction compared to forces is large: reduce conv_thr to get better values

     bfgs converged in  10 scf cycles and   9 bfgs steps
     (criteria: energy <  1.0E-04, force <  1.0E-03)

     End of BFGS Geometry Optimization

     Final energy   =   -1098.8639312247 Ry
Begin final coordinates

ATOMIC_POSITIONS (alat)
Au       0.000000000  -0.000000000  -0.071640824
Au       0.500000000   0.288675000   0.797508797
Au       0.000000000   0.577350000   1.652174586
Au       0.000000000  -0.000000000   2.520937441
End final coordinates

     Writing output data file Au.save

     General routines

     Parallel routines

   This run was terminated on:   3:31:35  18Jun2018

   JOB DONE.