     Program PWSCF v.5.1 starts on 18Jun2018 at  2:18:39

     Current dimensions of program PWSCF are:
     Max number of different atomic species (ntypx) = 10
     Max number of k-points (npk) =  40000
     Max angular momentum in pseudopotentials (lmaxx) =  3
               file C.pbe-n-kjpaw_psl.1.0.0.UPF: wavefunction(s)  2S 2P renormalized
               file O.pbe-n-kjpaw_psl.0.1.U: wavefunction(s)  2P renormalized

     Subspace diagonalization in iterative solution of the eigenvalue problem:
     a serial algorithm will be used

     bravais-lattice index     =            4
     lattice parameter (alat)  =       5.4490  a.u.
     unit-cell volume          =    1040.6255 (a.u.)^3
     number of atoms/cell      =            6
     number of atomic types    =            3
     number of electrons       =        86.00
     number of Kohn-Sham states=           52
     kinetic-energy cutoff     =      40.0000  Ry
     charge density cutoff     =     320.0000  Ry
     convergence threshold     =      1.0E-06
     mixing beta               =       0.7000
     number of iterations used =            8  plain     mixing
     Exchange-correlation      =  SLA  PW   PBX  PBC ( 1  4  3  4 0)
     nstep                     =           50

     celldm(1)=   5.449000  celldm(2)=   0.000000  celldm(3)=   7.427000
     celldm(4)=   0.000000  celldm(5)=   0.000000  celldm(6)=   0.000000

     crystal axes: (cart. coord. in units of alat)
               a(1) = (   1.000000   0.000000   0.000000 )
               a(2) = (  -0.500000   0.866025   0.000000 )
               a(3) = (   0.000000   0.000000   7.427000 )

     reciprocal axes: (cart. coord. in units 2 pi/alat)
               b(1) = (  1.000000  0.577350 -0.000000 )
               b(2) = (  0.000000  1.154701  0.000000 )
               b(3) = (  0.000000 -0.000000  0.134644 )

     PseudoPot. # 1 for Au read from file:
     /home/oropebuen/Documents/Job/Absortion/SSSP_efficiency_pseudos/Au_ONCV_PBE-1.0.upf
     MD5 check sum: 1009843a674e36925f098327e430af60
     Pseudo is Norm-conserving, Zval = 19.0
     Generated using ONCVPSP code by D. R. Hamann
     Using radial grid of  602 points,  8 beta functions with:
                l(1) =   0
                l(2) =   0
                l(3) =   1
                l(4) =   1
                l(5) =   2
                l(6) =   2
                l(7) =   3
                l(8) =   3

     PseudoPot. # 2 for  C read from file:
     /home/oropebuen/Documents/Job/Absortion/SSSP_efficiency_pseudos/C.pbe-n-kjpaw_psl.1.0.0.UPF
     MD5 check sum: 8e281b34a927efac7e739263a90d7aed
     Pseudo is Projector augmented-wave + core cor, Zval =  4.0
     Generated using "atomic" code by A. Dal Corso  v.5.1
     Shape of augmentation charge: PSQ
     Using radial grid of 1073 points,  4 beta functions with:
                l(1) =   0
                l(2) =   0
                l(3) =   1
                l(4) =   1
     Q(r) pseudized with 0 coefficients

     PseudoPot. # 3 for  O read from file:
     /home/oropebuen/Documents/Job/Absortion/SSSP_efficiency_pseudos/O.pbe-n-kjpaw_psl.0.1.U
     MD5 check sum: 3f94a2996a3169367d6eb21d9b593f20
     Pseudo is Projector augmented-wave + core cor, Zval =  6.0
     Generated using "atomic" code by A. Dal Corso  v.5.0.99 svn rev. 10869
     Shape of augmentation charge: BESSEL
     Using radial grid of 1095 points,  4 beta functions with:
                l(1) =   0
                l(2) =   0
                l(3) =   1
                l(4) =   1
     Q(r) pseudized with 0 coefficients

     atomic species   valence    mass     pseudopotential
        Au            19.00   196.96600     Au( 1.00)
        C              4.00    12.01070      C( 1.00)
        O              6.00    15.99940      O( 1.00)

      2 Sym. Ops. (no inversion) found

   Cartesian axes

     site n.     atom                  positions (alat units)
         1           Au  tau(   1) = (   0.0000000   0.0000000   0.0000000  )
         2           Au  tau(   2) = (   0.5000000   0.2886750   0.8164970  )
         3           Au  tau(   3) = (   0.0000000   0.5773500   1.6329930  )
         4           Au  tau(   4) = (   0.0000000   0.0000000   2.4494900  )
         5           C   tau(   5) = (   0.0000000   0.0000000   3.0737340  )
         6           O   tau(   6) = (   0.0000010   0.0010000   3.4648430  )

     number of k points=    52  gaussian smearing, width (Ry)=  0.0100
                       cart. coord. in units 2pi/alat
        k(    1) = (   0.0625000   0.1082532  -0.0673219), wk =   0.0416667
        k(    2) = (   0.0625000   0.2525907  -0.0673219), wk =   0.0416667
        k(    3) = (   0.0625000   0.3969283  -0.0673219), wk =   0.0416667
        k(    4) = (   0.0625000   0.5412659  -0.0673219), wk =   0.0416667
        k(    5) = (   0.0625000  -0.4690971  -0.0673219), wk =   0.0416667
        k(    6) = (   0.0625000  -0.3247595  -0.0673219), wk =   0.0416667
        k(    7) = (   0.0625000  -0.1804220  -0.0673219), wk =   0.0416667
        k(    8) = (   0.0625000  -0.0360844  -0.0673219), wk =   0.0416667
        k(    9) = (   0.1875000   0.3247595  -0.0673219), wk =   0.0416667
        k(   10) = (   0.1875000   0.4690971  -0.0673219), wk =   0.0416667
        k(   11) = (   0.1875000   0.6134347  -0.0673219), wk =   0.0416667
        k(   12) = (   0.1875000  -0.3969283  -0.0673219), wk =   0.0416667
        k(   13) = (   0.1875000  -0.2525907  -0.0673219), wk =   0.0416667
        k(   14) = (   0.1875000  -0.1082532  -0.0673219), wk =   0.0416667
        k(   15) = (   0.3125000   0.5412659  -0.0673219), wk =   0.0416667
        k(   16) = (   0.3125000   0.6856034  -0.0673219), wk =   0.0416667
        k(   17) = (   0.3125000  -0.3247595  -0.0673219), wk =   0.0416667
        k(   18) = (   0.3125000  -0.1804220  -0.0673219), wk =   0.0416667
        k(   19) = (   0.4375000   0.7577722  -0.0673219), wk =   0.0416667
        k(   20) = (   0.4375000  -0.2525907  -0.0673219), wk =   0.0416667
        k(   21) = (   0.1250000   0.0000000  -0.0673219), wk =   0.0208333
        k(   22) = (  -0.1875000   0.1804220  -0.0673219), wk =   0.0416667
        k(   23) = (   0.2500000   0.0721688  -0.0673219), wk =   0.0416667
        k(   24) = (  -0.3125000   0.2525907  -0.0673219), wk =   0.0416667
        k(   25) = (   0.3750000   0.1443376  -0.0673219), wk =   0.0416667
        k(   26) = (  -0.4375000   0.3247595  -0.0673219), wk =   0.0416667
        k(   27) = (   0.5000000   0.2165064  -0.0673219), wk =   0.0416667
        k(   28) = (   0.4375000  -0.1804220  -0.0673219), wk =   0.0416667
        k(   29) = (  -0.3750000  -0.2886751  -0.0673219), wk =   0.0416667
        k(   30) = (   0.3125000  -0.1082532  -0.0673219), wk =   0.0416667
        k(   31) = (  -0.2500000  -0.2165064  -0.0673219), wk =   0.0416667
        k(   32) = (   0.1875000  -0.0360844  -0.0673219), wk =   0.0416667
        k(   33) = (  -0.1250000  -0.1443376  -0.0673219), wk =   0.0416667
        k(   34) = (   0.0000000  -0.0721688  -0.0673219), wk =   0.0208333
        k(   35) = (   0.3750000   0.0000000  -0.0673219), wk =   0.0208333
        k(   36) = (  -0.3125000   0.3969283  -0.0673219), wk =   0.0416667
        k(   37) = (   0.5000000   0.0721688  -0.0673219), wk =   0.0416667
        k(   38) = (  -0.4375000   0.4690971  -0.0673219), wk =   0.0416667
        k(   39) = (   0.6250000   0.1443376  -0.0673219), wk =   0.0416667
        k(   40) = (   0.4375000  -0.0360844  -0.0673219), wk =   0.0416667
        k(   41) = (  -0.2500000  -0.3608439  -0.0673219), wk =   0.0416667
        k(   42) = (   0.3125000   0.0360844  -0.0673219), wk =   0.0416667
        k(   43) = (  -0.1250000  -0.2886751  -0.0673219), wk =   0.0416667
        k(   44) = (   0.0000000  -0.2165064  -0.0673219), wk =   0.0208333
        k(   45) = (   0.6250000   0.0000000  -0.0673219), wk =   0.0208333
        k(   46) = (  -0.4375000   0.6134347  -0.0673219), wk =   0.0416667
        k(   47) = (   0.7500000   0.0721688  -0.0673219), wk =   0.0416667
        k(   48) = (   0.4375000   0.1082532  -0.0673219), wk =   0.0416667
        k(   49) = (  -0.1250000  -0.4330127  -0.0673219), wk =   0.0416667
        k(   50) = (   0.0000000  -0.3608439  -0.0673219), wk =   0.0208333
        k(   51) = (   0.8750000   0.0000000  -0.0673219), wk =   0.0208333
        k(   52) = (   0.0000000  -0.5051815  -0.0673219), wk =   0.0208333

     Largest allocated arrays     est. size (Mb)     dimensions
     Largest temporary arrays     est. size (Mb)     dimensions

     Check: negative/imaginary core charge=   -0.000003    0.000000

     Initial potential from superposition of free atoms
     Check: negative starting charge=   -0.000174

     starting charge   85.91012, renormalised to   86.00000

     negative rho (up, down):  1.742E-04 0.000E+00
     Starting wfc are    8 randomized atomic wfcs +   44 random wfc
     Checking if some PAW data can be deallocated...

     Self-consistent Calculation

     iteration #  1     ecut=    40.00 Ry     beta=0.70
     Davidson diagonalization with overlap
     ethr =  1.00E-02,  avg # of iterations =  7.1

     Threshold (ethr) on eigenvalues was too large:
     Diagonalizing with lowered threshold

     Davidson diagonalization with overlap
     ethr =  6.01E-04,  avg # of iterations =  1.0

     negative rho (up, down):  1.492E-04 0.000E+00

     total energy              =   -1158.48970841 Ry
     Harris-Foulkes estimate   =   -1158.90709877 Ry
     estimated scf accuracy    <       0.51752615 Ry

[...]

     End of self-consistent calculation

          k = 0.0625 0.1083-0.0673 (  4518 PWs)   bands (ev):

   -99.3117 -98.0222 -97.9211 -97.4944 -51.0237 -50.4127 -50.3993 -49.3747
   -49.2543 -49.2389 -49.2064 -49.1662 -49.1529 -48.7598 -48.7462 -48.7103
   -17.7297  -4.6764  -1.5932  -1.1353  -0.5047   0.1886   0.7402   0.8868
     0.9328   2.1286   2.5015   2.5870   2.8123   2.9437   3.0731   3.1246
     3.4252   3.5517   3.6166   3.6886   3.8617   3.9501   4.5508   4.6721
     4.9648   5.3018   5.6500   5.9557   8.0985  11.0386  11.5039  11.7520
    12.8150  13.0966  14.9041  15.2880

[...]

          k =-0.1875 0.1804-0.0673 (  4466 PWs)   bands (ev):

[...]

     the Fermi energy is     7.8058 ev

!    total energy              =   -1158.81851714 Ry
     Harris-Foulkes estimate   =   -1158.81851748 Ry
     estimated scf accuracy    <       0.00000043 Ry

     The total energy is the sum of the following terms:

     one-electron contribution =   -6251.40443449 Ry
     hartree contribution      =    3130.48611856 Ry
     xc contribution           =    -113.50955265 Ry
     ewald contribution        =    2091.32362504 Ry
     one-center paw contrib.   =     -15.71363248 Ry
     smearing contrib. (-TS)   =      -0.00064112 Ry

     convergence has been achieved in  13 iterations

     Forces acting on atoms (Ry/au):

     negative rho (up, down):  1.449E-04 0.000E+00
     atom    1 type  1   force =     0.00000000    0.00000003   -0.02134914
     atom    2 type  1   force =     0.00000000   -0.00000221    0.00024055
     atom    3 type  1   force =     0.00000000   -0.00001483    0.00857277
     atom    4 type  1   force =     0.00000000   -0.00009506   -0.16088074
     atom    5 type  2   force =     0.00000000   -0.00003062    0.04493672
     atom    6 type  3   force =     0.00000000    0.00014269    0.12847985

     Total force =     0.211987     Total SCF correction =     0.005960

     BFGS Geometry Optimization

     number of scf cycles    =   1
     number of bfgs steps    =   0

     energy   new            =   -1158.8185171404 Ry

     new trust radius        =       0.1608807691 bohr
     new conv_thr            =       0.0000010000 Ry

ATOMIC_POSITIONS (alat)
Au      -0.000000000   0.000000006  -0.003917992
Au       0.500000000   0.288674594   0.816541145
Au       0.000000000   0.577347279   1.634566274
Au       0.000000000  -0.000017445   2.419965181
C        0.000000000  -0.000005620   3.081980783
O        0.000001000   0.001026186   3.488421610

     Writing output data file CO_Au_top.save
     Check: negative starting charge=   -0.000174
     NEW-OLD atomic charge density approx. for the potential

     Check: negative/imaginary core charge=   -0.000003    0.000000
     Check: negative starting charge=   -0.000184

[...]

     energy   old            =   -1158.8185171404 Ry
     energy   new            =   -1158.8409834718 Ry

     CASE: energy  _new < energy  _old

[...]

     CASE: energy  _new > energy  _old

[...]

     Total force =     0.033198     Total SCF correction =     0.004851
     SCF correction compared to forces is large: reduce conv_thr to get better values

[...]

     Total force =     0.004837     Total SCF correction =     0.000181

[...]

     number of scf cycles    =  16
     number of bfgs steps    =  14

     energy   old            =   -1158.8584610264 Ry
     energy   new            =   -1158.8585280422 Ry

     CASE: energy  _new < energy  _old

     new trust radius        =       0.0173253890 bohr
     new conv_thr            =       0.0000000100 Ry

ATOMIC_POSITIONS (alat)
Au      -0.000000000   0.000013061  -0.112539414
Au       0.500000000   0.288679924   0.758865685
Au       0.000000000   0.577341549   1.618965888
Au      -0.000000000  -0.000003134   2.449378509
C       -0.000000000   0.000355121   3.161759167
O        0.000001000   0.000638478   3.561127166

     Writing output data file CO_Au_top.save
     Check: negative starting charge=   -0.000167
     NEW-OLD atomic charge density approx. for the potential

     Check: negative/imaginary core charge=   -0.000003    0.000000
     Check: negative starting charge=   -0.000169

[...]

     Self-consistent Calculation

[...]

     Threshold (ethr) on eigenvalues was too large:
     Diagonalizing with lowered threshold

     Davidson diagonalization with overlap
     ethr =  5.32E-08,  avg # of iterations =  1.0

[...]

     total energy              =   -1158.85854898 Ry
     Harris-Foulkes estimate   =   -1158.85854899 Ry
     estimated scf accuracy    <       0.00000001 Ry

     iteration # 10     ecut=    40.00 Ry     beta=0.70
     Davidson diagonalization with overlap
     ethr =  1.42E-11,  avg # of iterations =  2.0

     negative rho (up, down):  1.245E-04 0.000E+00

     End of self-consistent calculation

[...]

          k =-0.1250-0.4330-0.0673 (  4428 PWs)   bands (ev):

[...]

          k = 0.0000-0.5052-0.0673 (  4396 PWs)   bands (ev):

   -98.5958 -97.9005 -97.8024 -97.4256 -50.0465 -49.9082 -49.7887 -49.2804
   -49.2184 -49.1807 -49.1596 -49.0745 -49.0588 -48.8415 -48.7227 -48.6103
   -17.0418  -2.4532  -1.3285  -0.1958   0.8682   0.8757   1.0014   1.3037
     1.5648   1.7980   2.1106   2.7978   3.1175   3.2767   4.0662   4.0721
     4.5501   4.8643   5.2207   5.3003   5.5409   5.8535   5.8893   5.9630
     6.2874   6.4543   7.2306   8.0529   9.1943  10.6320  10.7109  11.3418
    12.1822  13.4689  14.8659  15.6494

     the Fermi energy is     7.6837 ev

!    total energy              =   -1158.85854898 Ry
     Harris-Foulkes estimate   =   -1158.85854899 Ry
     estimated scf accuracy    <          8.8E-10 Ry

     The total energy is the sum of the following terms:

     one-electron contribution =   -5657.08381340 Ry
     hartree contribution      =    2834.06647546 Ry
     xc contribution           =    -113.24992342 Ry
     ewald contribution        =    1793.12496891 Ry
     one-center paw contrib.   =     -15.71532431 Ry
     smearing contrib. (-TS)   =      -0.00093222 Ry

     convergence has been achieved in  10 iterations

     Forces acting on atoms (Ry/au):

     negative rho (up, down):  1.245E-04 0.000E+00
     atom    1 type  1   force =     0.00000000    0.00000152   -0.00022472
     atom    2 type  1   force =     0.00000000    0.00000174    0.00020301
     atom    3 type  1   force =     0.00000000    0.00000577   -0.00059753
     atom    4 type  1   force =     0.00000000    0.00001785    0.00041338
     atom    5 type  2   force =     0.00000000   -0.00001105    0.00021023
     atom    6 type  3   force =     0.00000000   -0.00001583   -0.00000437

     Total force =     0.000815     Total SCF correction =     0.000215
     SCF correction compared to forces is large: reduce conv_thr to get better values

     bfgs converged in  17 scf cycles and  15 bfgs steps
     (criteria: energy <  1.0E-04, force <  1.0E-03)

     End of BFGS Geometry Optimization

     Final energy   =   -1158.8585489846 Ry
Begin final coordinates

ATOMIC_POSITIONS (alat)
Au      -0.000000000   0.000013061  -0.112539414
Au       0.500000000   0.288679924   0.758865685
Au       0.000000000   0.577341549   1.618965888
Au      -0.000000000  -0.000003134   2.449378509
C       -0.000000000   0.000355121   3.161759167
O        0.000001000   0.000638478   3.561127166
End final coordinates

     Writing output data file CO_Au_top.save

     General routines

     Parallel routines

     PAW routines

   This run was terminated on:   7: 9:39  18Jun2018

   JOB DONE.