     Program PWSCF v.5.1 starts on 18Jun2018 at 20:31:48

     Current dimensions of program PWSCF are:
     Max number of different atomic species (ntypx) = 10
     Max number of k-points (npk) =  40000
     Max angular momentum in pseudopotentials (lmaxx) =  3
               file C.pbe-n-kjpaw_psl.1.0.0.UPF: wavefunction(s)  2S 2P renormalized
               file O.pbe-n-kjpaw_psl.0.1.U: wavefunction(s)  2P renormalized

     Subspace diagonalization in iterative solution of the eigenvalue problem:
     a serial algorithm will be used

     bravais-lattice index     =            4
     lattice parameter (alat)  =       5.4490  a.u.
     unit-cell volume          =    1182.8411 (a.u.)^3
     number of atoms/cell      =            8
     number of atomic types    =            3
     number of electrons       =        96.00
     number of Kohn-Sham states=           58
     kinetic-energy cutoff     =      40.0000  Ry
     charge density cutoff     =     320.0000  Ry
     convergence threshold     =      1.0E-06
     mixing beta               =       0.7000
     number of iterations used =            8  plain     mixing
     Exchange-correlation      =  SLA  PW   PBX  PBC ( 1  4  3  4 0)
     nstep                     =           50

     celldm(1)=   5.449000  celldm(2)=   0.000000  celldm(3)=   8.442000
     celldm(4)=   0.000000  celldm(5)=   0.000000  celldm(6)=   0.000000

     crystal axes: (cart. coord. in units of alat)
               a(1) = (   1.000000   0.000000   0.000000 )
               a(2) = (  -0.500000   0.866025   0.000000 )
               a(3) = (   0.000000   0.000000   8.442000 )

     reciprocal axes: (cart. coord. in units 2 pi/alat)
               b(1) = (  1.000000  0.577350 -0.000000 )
               b(2) = (  0.000000  1.154701  0.000000 )
               b(3) = (  0.000000 -0.000000  0.118455 )

     PseudoPot. # 1 for Au read from file:
     /home/oropebuen/Documents/Job/Absortion/SSSP_efficiency_pseudos/Au_ONCV_PBE-1.0.upf
     MD5 check sum: 1009843a674e36925f098327e430af60
     Pseudo is Norm-conserving, Zval = 19.0
     Generated using ONCVPSP code by D. R. Hamann
     Using radial grid of  602 points,  8 beta functions with:
                l(1) =   0
                l(2) =   0
                l(3) =   1
                l(4) =   1
                l(5) =   2
                l(6) =   2
                l(7) =   3
                l(8) =   3

     PseudoPot. # 2 for  C read from file:
     /home/oropebuen/Documents/Job/Absortion/SSSP_efficiency_pseudos/C.pbe-n-kjpaw_psl.1.0.0.UPF
     MD5 check sum: 8e281b34a927efac7e739263a90d7aed
     Pseudo is Projector augmented-wave + core cor, Zval =  4.0
     Generated using "atomic" code by A. Dal Corso  v.5.1
     Shape of augmentation charge: PSQ
     Using radial grid of 1073 points,  4 beta functions with:
                l(1) =   0
                l(2) =   0
                l(3) =   1
                l(4) =   1
     Q(r) pseudized with 0 coefficients

     PseudoPot. # 3 for  O read from file:
     /home/oropebuen/Documents/Job/Absortion/SSSP_efficiency_pseudos/O.pbe-n-kjpaw_psl.0.1.U
     MD5 check sum: 3f94a2996a3169367d6eb21d9b593f20
     Pseudo is Projector augmented-wave + core cor, Zval =  6.0
     Generated using "atomic" code by A. Dal Corso  v.5.0.99 svn rev. 10869
     Shape of augmentation charge: BESSEL
     Using radial grid of 1095 points,  4 beta functions with:
                l(1) =   0
                l(2) =   0
                l(3) =   1
                l(4) =   1
     Q(r) pseudized with 0 coefficients

     atomic species   valence    mass     pseudopotential
        Au            19.00   196.96600     Au( 1.00)
        C              4.00    12.01070      C( 1.00)
        O              6.00    15.99940      O( 1.00)

      2 Sym. Ops. (no inversion) found

   Cartesian axes

     site n.     atom                  positions (alat units)
         1           O   tau(   1) = (   0.5000010   0.2893304  -1.0073012  )
         2           C   tau(   2) = (   0.5000000   0.2896925  -0.6018444  )
         3           Au  tau(   3) = (  -0.0000000  -0.0005614  -0.0757270  )
         4           Au  tau(   4) = (   0.5000000   0.2886019   0.7828216  )
         5           Au  tau(   5) = (   0.0000000   0.5773333   1.6617213  )
         6           Au  tau(   6) = (   0.0000000   0.0000926   2.5271022  )
         7           C   tau(   7) = (   0.5000000   0.2892360   3.0527721  )
         8           O   tau(   8) = (   0.5000010   0.2889997   3.4584154  )

     number of k points=    52  gaussian smearing, width (Ry)=  0.0100
                       cart. coord. in units 2pi/alat
        k(    1) = (   0.0625000   0.1082532  -0.0592277), wk =   0.0416667
        k(    2) = (   0.0625000   0.2525907  -0.0592277), wk =   0.0416667
        k(    3) = (   0.0625000   0.3969283  -0.0592277), wk =   0.0416667
        k(    4) = (   0.0625000   0.5412659  -0.0592277), wk =   0.0416667
        k(    5) = (   0.0625000  -0.4690971  -0.0592277), wk =   0.0416667
        k(    6) = (   0.0625000  -0.3247595  -0.0592277), wk =   0.0416667
        k(    7) = (   0.0625000  -0.1804220  -0.0592277), wk =   0.0416667
        k(    8) = (   0.0625000  -0.0360844  -0.0592277), wk =   0.0416667
        k(    9) = (   0.1875000   0.3247595  -0.0592277), wk =   0.0416667
        k(   10) = (   0.1875000   0.4690971  -0.0592277), wk =   0.0416667
        k(   11) = (   0.1875000   0.6134347  -0.0592277), wk =   0.0416667
        k(   12) = (   0.1875000  -0.3969283  -0.0592277), wk =   0.0416667
        k(   13) = (   0.1875000  -0.2525907  -0.0592277), wk =   0.0416667
        k(   14) = (   0.1875000  -0.1082532  -0.0592277), wk =   0.0416667
        k(   15) = (   0.3125000   0.5412659  -0.0592277), wk =   0.0416667
        k(   16) = (   0.3125000   0.6856034  -0.0592277), wk =   0.0416667
        k(   17) = (   0.3125000  -0.3247595  -0.0592277), wk =   0.0416667
        k(   18) = (   0.3125000  -0.1804220  -0.0592277), wk =   0.0416667
        k(   19) = (   0.4375000   0.7577722  -0.0592277), wk =   0.0416667
        k(   20) = (   0.4375000  -0.2525907  -0.0592277), wk =   0.0416667
        k(   21) = (   0.1250000   0.0000000  -0.0592277), wk =   0.0208333
        k(   22) = (  -0.1875000   0.1804220  -0.0592277), wk =   0.0416667
        k(   23) = (   0.2500000   0.0721688  -0.0592277), wk =   0.0416667
        k(   24) = (  -0.3125000   0.2525907  -0.0592277), wk =   0.0416667
        k(   25) = (   0.3750000   0.1443376  -0.0592277), wk =   0.0416667
        k(   26) = (  -0.4375000   0.3247595  -0.0592277), wk =   0.0416667
        k(   27) = (   0.5000000   0.2165064  -0.0592277), wk =   0.0416667
        k(   28) = (   0.4375000  -0.1804220  -0.0592277), wk =   0.0416667
        k(   29) = (  -0.3750000  -0.2886751  -0.0592277), wk =   0.0416667
        k(   30) = (   0.3125000  -0.1082532  -0.0592277), wk =   0.0416667
        k(   31) = (  -0.2500000  -0.2165064  -0.0592277), wk =   0.0416667
        k(   32) = (   0.1875000  -0.0360844  -0.0592277), wk =   0.0416667
        k(   33) = (  -0.1250000  -0.1443376  -0.0592277), wk =   0.0416667
        k(   34) = (   0.0000000  -0.0721688  -0.0592277), wk =   0.0208333
        k(   35) = (   0.3750000   0.0000000  -0.0592277), wk =   0.0208333
        k(   36) = (  -0.3125000   0.3969283  -0.0592277), wk =   0.0416667
        k(   37) = (   0.5000000   0.0721688  -0.0592277), wk =   0.0416667
        k(   38) = (  -0.4375000   0.4690971  -0.0592277), wk =   0.0416667
        k(   39) = (   0.6250000   0.1443376  -0.0592277), wk =   0.0416667
        k(   40) = (   0.4375000  -0.0360844  -0.0592277), wk =   0.0416667
        k(   41) = (  -0.2500000  -0.3608439  -0.0592277), wk =   0.0416667
        k(   42) = (   0.3125000   0.0360844  -0.0592277), wk =   0.0416667
        k(   43) = (  -0.1250000  -0.2886751  -0.0592277), wk =   0.0416667
        k(   44) = (   0.0000000  -0.2165064  -0.0592277), wk =   0.0208333
        k(   45) = (   0.6250000   0.0000000  -0.0592277), wk =   0.0208333
        k(   46) = (  -0.4375000   0.6134347  -0.0592277), wk =   0.0416667
        k(   47) = (   0.7500000   0.0721688  -0.0592277), wk =   0.0416667
        k(   48) = (   0.4375000   0.1082532  -0.0592277), wk =   0.0416667
        k(   49) = (  -0.1250000  -0.4330127  -0.0592277), wk =   0.0416667
        k(   50) = (   0.0000000  -0.3608439  -0.0592277), wk =   0.0208333
        k(   51) = (   0.8750000   0.0000000  -0.0592277), wk =   0.0208333
        k(   52) = (   0.0000000  -0.5051815  -0.0592277), wk =   0.0208333

     Largest allocated arrays     est. size (Mb)     dimensions
     Largest temporary arrays     est. size (Mb)     dimensions

     Check: negative/imaginary core charge=   -0.000004    0.000000

     Initial potential from superposition of free atoms
     Check: negative starting charge=   -0.000199

     starting charge   95.91008, renormalised to   96.00000

     negative rho (up, down):  1.994E-04 0.000E+00
     Starting wfc are   16 randomized atomic wfcs +   42 random wfc
     Checking if some PAW data can be deallocated...

     Self-consistent Calculation

     iteration #  1     ecut=    40.00 Ry     beta=0.70
     Davidson diagonalization with overlap
     ethr =  1.00E-02,  avg # of iterations =  7.2

     Threshold (ethr) on eigenvalues was too large:
     Diagonalizing with lowered threshold

     Davidson diagonalization with overlap
     ethr =  9.57E-04,  avg # of iterations =  1.0

     negative rho (up, down):  2.923E-04 0.000E+00

     total energy              =   -1218.17658191 Ry
     Harris-Foulkes estimate   =   -1218.94195702 Ry
     estimated scf accuracy    <       0.91651487 Ry

[...]

     total energy              =   -1218.78247977 Ry
     Harris-Foulkes estimate   =   -1218.78248009 Ry
     estimated scf accuracy    <       0.00000283 Ry

     iteration # 17     ecut=    40.00 Ry     beta=0.70
     Davidson diagonalization with overlap
     ethr =  2.52E-09,  avg # of iterations =  1.0

     negative rho (up, down):  2.881E-04 0.000E+00

     End of self-consistent calculation

          k = 0.0625 0.1083-0.0592 (  5130 PWs)   bands (ev):

   -99.9748 -99.9523 -98.8705 -98.8454 -51.3397 -51.3237 -51.2068 -51.1926
   -51.1835 -51.1685 -50.1742 -50.1125 -50.1024 -50.0920 -50.0778 -50.0646
   -16.8977 -16.8701  -5.1755  -5.1656  -1.8175  -1.4103  -1.1869  -0.4919
     0.4456   0.4684   0.5944   0.6290   0.8593   0.8771   1.4580   1.5855
     1.7839   1.8837   1.9600   2.0024   2.2737   2.3692   2.5405   2.5678
     2.6397   2.9200   3.0467   3.2275   3.2552   3.8590   3.9658   4.3595
     5.3815   9.2264  10.4658  10.6452  10.9595  10.9657  12.7644  12.9347
    13.3583  14.3583

[...]

          k =-0.1875 0.1804-0.0592 (  5074 PWs)   bands (ev):

[...]

          k =-0.1250-0.4330-0.0592 (  5038 PWs)   bands (ev):

[...]

          k = 0.0000-0.5052-0.0592 (  4992 PWs)   bands (ev):

   -99.9679 -99.9455 -98.8637 -98.8387 -51.3524 -51.3295 -51.3211 -51.3049
   -51.2291 -51.2047 -50.2493 -50.2233 -50.1398 -50.1287 -50.1068 -50.0999
   -16.4663 -16.4383  -3.6583  -3.6428  -1.9087  -1.8881  -0.7130  -0.7093
    -0.0179   0.0264   0.2532   0.5210   0.5884   0.5946   0.7901   1.4299
     1.9731   2.1472   2.4250   2.5579   2.7037   3.0650   3.3180   3.7289
     3.7691   4.1694   4.1958   4.5254   4.8819   4.9433   5.8408   6.2349
     6.7415   7.7906   9.7547  10.2482  10.2636  10.6558  11.4740  11.7930
    13.1733  14.5685

     the Fermi energy is     6.8064 ev

!    total energy              =   -1218.78247949 Ry
     Harris-Foulkes estimate   =   -1218.78247996 Ry
     estimated scf accuracy    <       0.00000048 Ry

     The total energy is the sum of the following terms:

     one-electron contribution =   -8084.40643085 Ry
     hartree contribution      =    4049.49160572 Ry
     xc contribution           =    -125.28353570 Ry
     ewald contribution        =    2972.82888906 Ry
     one-center paw contrib.   =     -31.41114548 Ry
     smearing contrib. (-TS)   =      -0.00186224 Ry

     convergence has been achieved in  17 iterations

     Forces acting on atoms (Ry/au):

     negative rho (up, down):  2.881E-04 0.000E+00
     atom    1 type  3   force =     0.00000000   -0.00001047   -0.00062419
     atom    2 type  2   force =     0.00000000    0.00004693    0.00066994
     atom    3 type  1   force =     0.00000000   -0.00001817    0.00035484
     atom    4 type  1   force =     0.00000000   -0.00001611    0.00088888
     atom    5 type  1   force =     0.00000000   -0.00001077    0.00019236
     atom    6 type  1   force =     0.00000000   -0.00001611    0.00006446
     atom    7 type  2   force =     0.00000000   -0.00001658   -0.00075751
     atom    8 type  3   force =     0.00000000    0.00004127   -0.00078877

     Total force =     0.001731     Total SCF correction =     0.006175
     SCF correction compared to forces is large: reduce conv_thr to get better values

     BFGS Geometry Optimization

     bfgs converged in   1 scf cycles and   0 bfgs steps
     (criteria: energy <  1.0E-04, force <  1.0E-03)

     End of BFGS Geometry Optimization

     Final energy   =   -1218.7824794893 Ry
Begin final coordinates

ATOMIC_POSITIONS (alat)
O        0.500001000   0.289330436  -1.007301227
C        0.500000000   0.289692478  -0.601844381
Au       0.000000000  -0.000561426  -0.075726971
Au       0.500000000   0.288601890   0.782821596
Au       0.000000000   0.577333299   1.661721331
Au       0.000000000   0.000092570   2.527102214
C        0.500000000   0.289236017   3.052772064
O        0.500001000   0.288999736   3.458415375
End final coordinates

     Writing output data file CO_Au_hollow.save

     General routines

     Parallel routines

     PAW routines

   This run was terminated on:  20:51:58  18Jun2018

   JOB DONE.