     Program PWSCF v.5.1 starts on 18Jun2018 at 16:57: 4

     Current dimensions of program PWSCF are:
     Max number of different atomic species (ntypx) = 10
     Max number of k-points (npk) =  40000
     Max angular momentum in pseudopotentials (lmaxx) =  3
               file C.pbe-n-kjpaw_psl.1.0.0.UPF: wavefunction(s)  2S 2P renormalized
               file O.pbe-n-kjpaw_psl.0.1.U: wavefunction(s)  2P renormalized

     Subspace diagonalization in iterative solution of the eigenvalue problem:
     a serial algorithm will be used

     bravais-lattice index     =            4
     lattice parameter (alat)  =       5.4490  a.u.
     unit-cell volume          =    1182.8411 (a.u.)^3
     number of atoms/cell      =            8
     number of atomic types    =            3
     number of electrons       =        96.00
     number of Kohn-Sham states=           58
     kinetic-energy cutoff     =      40.0000  Ry
     charge density cutoff     =     320.0000  Ry
     convergence threshold     =      1.0E-06
     mixing beta               =       0.7000
     number of iterations used =            8  plain     mixing
     Exchange-correlation      =  SLA  PW   PBX  PBC ( 1  4  3  4 0)
     nstep                     =           50

     celldm(1)=   5.449000  celldm(2)=   0.000000  celldm(3)=   8.442000
     celldm(4)=   0.000000  celldm(5)=   0.000000  celldm(6)=   0.000000

     crystal axes: (cart. coord. in units of alat)
               a(1) = (   1.000000   0.000000   0.000000 )
               a(2) = (  -0.500000   0.866025   0.000000 )
               a(3) = (   0.000000   0.000000   8.442000 )

     reciprocal axes: (cart. coord. in units 2 pi/alat)
               b(1) = (  1.000000  0.577350 -0.000000 )
               b(2) = (  0.000000  1.154701  0.000000 )
               b(3) = (  0.000000 -0.000000  0.118455 )

     PseudoPot. # 1 for Au read from file:
     /home/oropebuen/Documents/Job/Absortion/SSSP_efficiency_pseudos/Au_ONCV_PBE-1.0.upf
     MD5 check sum: 1009843a674e36925f098327e430af60
     Pseudo is Norm-conserving, Zval = 19.0
     Generated using ONCVPSP code by D. R. Hamann
     Using radial grid of  602 points,  8 beta functions with:
                l(1) =   0
                l(2) =   0
                l(3) =   1
                l(4) =   1
                l(5) =   2
                l(6) =   2
                l(7) =   3
                l(8) =   3

     PseudoPot. # 2 for  C read from file:
     /home/oropebuen/Documents/Job/Absortion/SSSP_efficiency_pseudos/C.pbe-n-kjpaw_psl.1.0.0.UPF
     MD5 check sum: 8e281b34a927efac7e739263a90d7aed
     Pseudo is Projector augmented-wave + core cor, Zval =  4.0
     Generated using "atomic" code by A. Dal Corso  v.5.1
     Shape of augmentation charge: PSQ
     Using radial grid of 1073 points,  4 beta functions with:
                l(1) =   0
                l(2) =   0
                l(3) =   1
                l(4) =   1
     Q(r) pseudized with 0 coefficients

     PseudoPot. # 3 for  O read from file:
     /home/oropebuen/Documents/Job/Absortion/SSSP_efficiency_pseudos/O.pbe-n-kjpaw_psl.0.1.U
     MD5 check sum: 3f94a2996a3169367d6eb21d9b593f20
     Pseudo is Projector augmented-wave + core cor, Zval =  6.0
     Generated using "atomic" code by A. Dal Corso  v.5.0.99 svn rev. 10869
     Shape of augmentation charge: BESSEL
     Using radial grid of 1095 points,  4 beta functions with:
                l(1) =   0
                l(2) =   0
                l(3) =   1
                l(4) =   1
     Q(r) pseudized with 0 coefficients

     atomic species   valence    mass     pseudopotential
        Au            19.00   196.96600     Au( 1.00)
        C              4.00    12.01070      C( 1.00)
        O              6.00    15.99940      O( 1.00)

      2 Sym. Ops. (no inversion) found

   Cartesian axes

     site n.     atom                  positions (alat units)
         1           O   tau(   1) = (   0.5000010   0.2886750  -1.0153530  )
         2           C   tau(   2) = (   0.5000000   0.2896750  -0.6242440  )
         3           Au  tau(   3) = (   0.0000000   0.0000000   0.0000000  )
         4           Au  tau(   4) = (   0.5000000   0.2886750   0.8164970  )
         5           Au  tau(   5) = (   0.0000000   0.5773500   1.6329930  )
         6           Au  tau(   6) = (   0.0000000   0.0000000   2.4494900  )
         7           C   tau(   7) = (   0.5000000   0.2886750   3.0737340  )
         8           O   tau(   8) = (   0.5000010   0.2896750   3.4648430  )

     number of k points=    52  gaussian smearing, width (Ry)=  0.0100
                       cart. coord. in units 2pi/alat
        k(    1) = (   0.0625000   0.1082532  -0.0592277), wk =   0.0416667
        k(    2) = (   0.0625000   0.2525907  -0.0592277), wk =   0.0416667
        k(    3) = (   0.0625000   0.3969283  -0.0592277), wk =   0.0416667
        k(    4) = (   0.0625000   0.5412659  -0.0592277), wk =   0.0416667
        k(    5) = (   0.0625000  -0.4690971  -0.0592277), wk =   0.0416667
        k(    6) = (   0.0625000  -0.3247595  -0.0592277), wk =   0.0416667
        k(    7) = (   0.0625000  -0.1804220  -0.0592277), wk =   0.0416667
        k(    8) = (   0.0625000  -0.0360844  -0.0592277), wk =   0.0416667
        k(    9) = (   0.1875000   0.3247595  -0.0592277), wk =   0.0416667
        k(   10) = (   0.1875000   0.4690971  -0.0592277), wk =   0.0416667
        k(   11) = (   0.1875000   0.6134347  -0.0592277), wk =   0.0416667
        k(   12) = (   0.1875000  -0.3969283  -0.0592277), wk =   0.0416667
        k(   13) = (   0.1875000  -0.2525907  -0.0592277), wk =   0.0416667
        k(   14) = (   0.1875000  -0.1082532  -0.0592277), wk =   0.0416667
        k(   15) = (   0.3125000   0.5412659  -0.0592277), wk =   0.0416667
        k(   16) = (   0.3125000   0.6856034  -0.0592277), wk =   0.0416667
        k(   17) = (   0.3125000  -0.3247595  -0.0592277), wk =   0.0416667
        k(   18) = (   0.3125000  -0.1804220  -0.0592277), wk =   0.0416667
        k(   19) = (   0.4375000   0.7577722  -0.0592277), wk =   0.0416667
        k(   20) = (   0.4375000  -0.2525907  -0.0592277), wk =   0.0416667
        k(   21) = (   0.1250000   0.0000000  -0.0592277), wk =   0.0208333
        k(   22) = (  -0.1875000   0.1804220  -0.0592277), wk =   0.0416667
        k(   23) = (   0.2500000   0.0721688  -0.0592277), wk =   0.0416667
        k(   24) = (  -0.3125000   0.2525907  -0.0592277), wk =   0.0416667
        k(   25) = (   0.3750000   0.1443376  -0.0592277), wk =   0.0416667
        k(   26) = (  -0.4375000   0.3247595  -0.0592277), wk =   0.0416667
        k(   27) = (   0.5000000   0.2165064  -0.0592277), wk =   0.0416667
        k(   28) = (   0.4375000  -0.1804220  -0.0592277), wk =   0.0416667
        k(   29) = (  -0.3750000  -0.2886751  -0.0592277), wk =   0.0416667
        k(   30) = (   0.3125000  -0.1082532  -0.0592277), wk =   0.0416667
        k(   31) = (  -0.2500000  -0.2165064  -0.0592277), wk =   0.0416667
        k(   32) = (   0.1875000  -0.0360844  -0.0592277), wk =   0.0416667
        k(   33) = (  -0.1250000  -0.1443376  -0.0592277), wk =   0.0416667
        k(   34) = (   0.0000000  -0.0721688  -0.0592277), wk =   0.0208333
        k(   35) = (   0.3750000   0.0000000  -0.0592277), wk =   0.0208333
        k(   36) = (  -0.3125000   0.3969283  -0.0592277), wk =   0.0416667
        k(   37) = (   0.5000000   0.0721688  -0.0592277), wk =   0.0416667
        k(   38) = (  -0.4375000   0.4690971  -0.0592277), wk =   0.0416667
        k(   39) = (   0.6250000   0.1443376  -0.0592277), wk =   0.0416667
        k(   40) = (   0.4375000  -0.0360844  -0.0592277), wk =   0.0416667
        k(   41) = (  -0.2500000  -0.3608439  -0.0592277), wk =   0.0416667
        k(   42) = (   0.3125000   0.0360844  -0.0592277), wk =   0.0416667
        k(   43) = (  -0.1250000  -0.2886751  -0.0592277), wk =   0.0416667
        k(   44) = (   0.0000000  -0.2165064  -0.0592277), wk =   0.0208333
        k(   45) = (   0.6250000   0.0000000  -0.0592277), wk =   0.0208333
        k(   46) = (  -0.4375000   0.6134347  -0.0592277), wk =   0.0416667
        k(   47) = (   0.7500000   0.0721688  -0.0592277), wk =   0.0416667
        k(   48) = (   0.4375000   0.1082532  -0.0592277), wk =   0.0416667
        k(   49) = (  -0.1250000  -0.4330127  -0.0592277), wk =   0.0416667
        k(   50) = (   0.0000000  -0.3608439  -0.0592277), wk =   0.0208333
        k(   51) = (   0.8750000   0.0000000  -0.0592277), wk =   0.0208333
        k(   52) = (   0.0000000  -0.5051815  -0.0592277), wk =   0.0208333

     Largest allocated arrays     est. size (Mb)     dimensions
     Largest temporary arrays     est. size (Mb)     dimensions

     Check: negative/imaginary core charge=   -0.000004    0.000000

     Initial potential from superposition of free atoms
     Check: negative starting charge=   -0.000200

     starting charge   95.91008, renormalised to   96.00000

     negative rho (up, down):  2.006E-04 0.000E+00
     Starting wfc are   16 randomized atomic wfcs +   42 random wfc
     Checking if some PAW data can be deallocated...

     Self-consistent Calculation

     iteration #  1     ecut=    40.00 Ry     beta=0.70
     Davidson diagonalization with overlap
     ethr =  1.00E-02,  avg # of iterations =  7.3

     Threshold (ethr) on eigenvalues was too large:
     Diagonalizing with lowered threshold

     Davidson diagonalization with overlap
     ethr =  5.38E-04,  avg # of iterations =  1.1

     negative rho (up, down):  2.934E-04 0.000E+00

     total energy              =   -1218.50513084 Ry
     Harris-Foulkes estimate   =   -1218.89931943 Ry
     estimated scf accuracy    <       0.51564782 Ry

[...]

     End of self-consistent calculation

          k = 0.0625 0.1083-0.0592 (  5130 PWs)   bands (ev):

   -99.0247 -99.0078 -98.4628 -98.4318 -50.3755 -50.3625 -50.2597 -50.2457
   -50.2414 -50.2272 -49.8180 -49.7155 -49.6965 -49.6889 -49.6650 -49.6522
   -17.6656 -17.6542  -3.9977  -3.9719  -1.8822  -1.4761  -1.0195  -0.0859
     0.5285   0.5401   1.0866   1.1139   1.1452   1.1484   2.0101   2.0586
     2.1216   2.3209   2.4354   2.4495   2.5948   2.6769   2.7966   2.8770
     3.2136   3.4969   3.6027   3.7782   3.7998   4.3212   4.5041   4.9956
     5.9506   9.7063  10.8514  11.1624  11.4330  11.4428  12.4434  12.5160
    13.0391  14.0934

[...]

          k =-0.1875 0.1804-0.0592 (  5074 PWs)   bands (ev):

[...]

     the Fermi energy is     7.3431 ev

!    total energy              =   -1218.75966004 Ry
     Harris-Foulkes estimate   =   -1218.75966036 Ry
     estimated scf accuracy    <       0.00000033 Ry

     The total energy is the sum of the following terms:

     one-electron contribution =   -8535.29968395 Ry
     hartree contribution      =    4276.68371410 Ry
     xc contribution           =    -125.38433523 Ry
     ewald contribution        =    3196.66483214 Ry
     one-center paw contrib.   =     -31.42209451 Ry
     smearing contrib. (-TS)   =      -0.00209259 Ry

     convergence has been achieved in  15 iterations

     Forces acting on atoms (Ry/au):

     negative rho (up, down):  2.949E-04 0.000E+00
     atom    1 type  3   force =     0.00000000   -0.00015749   -0.13879871
     atom    2 type  2   force =     0.00000000    0.00031251    0.14034720
     atom    3 type  1   force =     0.00000000   -0.00013403   -0.01723340
     atom    4 type  1   force =     0.00000000   -0.00000946   -0.00413910
     atom    5 type  1   force =     0.00000000    0.00000301    0.00049969
     atom    6 type  1   force =     0.00000000    0.00004939    0.01950252
     atom    7 type  2   force =     0.00000000   -0.00019427   -0.13904004
     atom    8 type  3   force =     0.00000000    0.00013033    0.13886184

     Total force =     0.279771     Total SCF correction =     0.004769

     BFGS Geometry Optimization

     number of scf cycles    =   1
     number of bfgs steps    =   0

     energy   new            =   -1218.7596600438 Ry

     new trust radius        =       0.1403475527 bohr
     new conv_thr            =       0.0000010000 Ry

ATOMIC_POSITIONS (alat)
O        0.500001000   0.288646097  -1.040825328
C        0.500000000   0.289732352  -0.598487493
Au       0.000000000  -0.000024597  -0.003162672
Au       0.500000000   0.288673264   0.815737393
Au       0.000000000   0.577350553   1.633084704
Au       0.000000000   0.000009064   2.453069100
C        0.500000000   0.288639348   3.048217384
O        0.500001000   0.289698918   3.490326913

     Writing output data file CO_Au_hollow.save
     Check: negative starting charge=   -0.000200
     NEW-OLD atomic charge density approx. for the potential

     Check: negative/imaginary core charge=   -0.000004    0.000000
     Check: negative starting charge=   -0.000183

[...]

     energy   old            =   -1218.7596600438 Ry
     energy   new            =   -1218.6955318027 Ry

     CASE: energy  _new > energy  _old

[...]

     Total force =     0.071368     Total SCF correction =     0.009764
     SCF correction compared to forces is large: reduce conv_thr to get better values

[...]

     CASE: energy  _new < energy  _old

[...]

     Total force =     0.008071     Total SCF correction =     0.000164

[...]

     number of scf cycles    =  15
     number of bfgs steps    =  13

     energy   old            =   -1218.7824550960 Ry
     energy   new            =   -1218.7824777360 Ry

     CASE: energy  _new < energy  _old

     new trust radius        =       0.0012714969 bohr
     new conv_thr            =       0.0000000100 Ry

ATOMIC_POSITIONS (alat)
O        0.500001000   0.289330436  -1.007301227
C        0.500000000   0.289692478  -0.601844381
Au      -0.000000000  -0.000561426  -0.075726971
Au       0.500000000   0.288601890   0.782821596
Au       0.000000000   0.577333299   1.661721331
Au       0.000000000   0.000092570   2.527102214
C        0.500000000   0.289236017   3.052772064
O        0.500001000   0.288999736   3.458415375

     Writing output data file CO_Au_hollow.save
     Check: negative starting charge=   -0.000199
     NEW-OLD atomic charge density approx. for the potential

     Check: negative/imaginary core charge=   -0.000004    0.000000
     Check: negative starting charge=   -0.000199

[...]

     Self-consistent Calculation

[...]

     Threshold (ethr) on eigenvalues was too large:
     Diagonalizing with lowered threshold

     Davidson diagonalization with overlap
     ethr =  5.63E-10,  avg # of iterations =  3.2

[...]

     total energy              =   -1218.78247995 Ry
     Harris-Foulkes estimate   =   -1218.78247995 Ry
     estimated scf accuracy    <       0.00000001 Ry

     iteration #  9     ecut=    40.00 Ry     beta=0.70
     Davidson diagonalization with overlap
     ethr =  1.20E-11,  avg # of iterations =  2.0

     negative rho (up, down):  2.881E-04 0.000E+00

     End of self-consistent calculation

[...]

          k =-0.1250-0.4330-0.0592 (  5038 PWs)   bands (ev):

[...]

          k = 0.0000-0.5052-0.0592 (  4992 PWs)   bands (ev):

   -99.9684 -99.9455 -98.8641 -98.8384 -51.3529 -51.3295 -51.3215 -51.3049
   -51.2295 -51.2047 -50.2498 -50.2231 -50.1401 -50.1291 -50.1067 -50.0997
   -16.4655 -16.4387  -3.6586  -3.6424  -1.9083  -1.8885  -0.7125  -0.7098
    -0.0181   0.0264   0.2529   0.5208   0.5888   0.5943   0.7899   1.4297
     1.9730   2.1471   2.4250   2.5577   2.7035   3.0649   3.3179   3.7286
     3.7690   4.1692   4.1956   4.5253   4.8816   4.9432   5.8406   6.2348
     6.7414   7.7905   9.7545  10.2484  10.2635  10.6556  11.4737  11.7930
    13.1732  14.5684

     the Fermi energy is     6.8063 ev

!    total energy              =   -1218.78247995 Ry
     Harris-Foulkes estimate   =   -1218.78247995 Ry
     estimated scf accuracy    <          1.4E-09 Ry

     The total energy is the sum of the following terms:

     one-electron contribution =   -8084.42253338 Ry
     hartree contribution      =    4049.50768908 Ry
     xc contribution           =    -125.28351294 Ry
     ewald contribution        =    2972.82888833 Ry
     one-center paw contrib.   =     -31.41114844 Ry
     smearing contrib. (-TS)   =      -0.00186260 Ry

     convergence has been achieved in   9 iterations

     Forces acting on atoms (Ry/au):

     negative rho (up, down):  2.881E-04 0.000E+00
     atom    1 type  3   force =     0.00000000   -0.00001008   -0.00011397
     atom    2 type  2   force =     0.00000000    0.00004683    0.00041806
     atom    3 type  1   force =     0.00000000   -0.00001821    0.00014971
     atom    4 type  1   force =     0.00000000   -0.00001611    0.00074450
     atom    5 type  1   force =     0.00000000   -0.00001078    0.00013290
     atom    6 type  1   force =     0.00000000   -0.00001609    0.00002673
     atom    7 type  2   force =     0.00000000   -0.00001652   -0.00094928
     atom    8 type  3   force =     0.00000000    0.00004097   -0.00040865

     Total force =     0.001362     Total SCF correction =     0.000339
     SCF correction compared to forces is large: reduce conv_thr to get better values

     bfgs converged in  16 scf cycles and  14 bfgs steps
     (criteria: energy <  1.0E-04, force <  1.0E-03)

     End of BFGS Geometry Optimization

     Final energy   =   -1218.7824799500 Ry
Begin final coordinates

ATOMIC_POSITIONS (alat)
O        0.500001000   0.289330436  -1.007301227
C        0.500000000   0.289692478  -0.601844381
Au      -0.000000000  -0.000561426  -0.075726971
Au       0.500000000   0.288601890   0.782821596
Au       0.000000000   0.577333299   1.661721331
Au       0.000000000   0.000092570   2.527102214
C        0.500000000   0.289236017   3.052772064
O        0.500001000   0.288999736   3.458415375
End final coordinates

     Writing output data file CO_Au_hollow.save

     General routines

     Parallel routines

     PAW routines

   This run was terminated on:  20:15: 1  18Jun2018

   JOB DONE.